NAME : a280
COMMENT : Tour length 3430
TYPE : TOUR
DIMENSION : 280
TOUR_SECTION
1
2
280
3
279
278
277
276
275
274
273
272
271
16
17
18
19
20
21
128
127
126
125
30
31
32
33
34
35
36
37
38
39
40
41
42
43
60
61
118
117
115
114
111
110
108
104
103
102
101
100
99
98
93
94
95
96
97
92
91
90
89
81
80
79
76
75
74
73
72
71
70
67
66
65
64
63
62
116
86
85
84
83
82
88
112
113
87
109
105
106
107
174
161
162
163
164
165
166
167
168
169
170
171
172
173
175
160
159
158
157
119
120
121
122
123
124
154
155
153
156
152
151
177
176
181
180
179
178
150
149
139
138
137
136
135
134
270
269
268
267
266
140
141
142
143
144
145
146
147
148
265
264
263
262
261
260
259
258
257
254
253
208
207
210
209
252
255
256
249
248
247
244
241
240
239
238
231
232
233
234
235
236
237
246
245
243
242
250
251
230
229
228
227
226
225
224
223
222
219
218
215
214
211
212
213
216
217
220
221
195
194
197
196
201
198
199
200
202
203
204
205
206
4
5
6
7
8
9
10
11
12
13
14
24
23
25
22
26
27
28
29
129
130
131
132
133
15
182
183
184
185
187
186
190
189
188
191
192
193
59
44
45
46
47
48
49
50
51
52
53
54
55
56
57
58
68
69
77
78
1
-1
EOF